n1 = 10;
adjacent1 = [| 0, 0, 1, 0, 0, 0, 1, 0, 0, 0
| 0, 0, 1, 1, 0, 0, 0, 0, 0, 0
| 1, 1, 0, 0, 1, 0, 0, 0, 0, 0
| 0, 1, 0, 0, 0, 0, 0, 1, 0, 0
| 0, 0, 1, 0, 0, 0, 0, 0, 0, 0
| 0, 0, 0, 0, 0, 0, 0, 1, 1, 1
| 1, 0, 0, 0, 0, 0, 0, 0, 0, 1
| 0, 0, 0, 1, 0, 1, 0, 0, 0, 0
| 0, 0, 0, 0, 0, 1, 0, 0, 0, 0
| 0, 0, 0, 0, 0, 1, 1, 0, 0, 0 |];
n2 = 10;
adjacent2 = [| 0, 0, 1, 0, 0, 0, 1, 0, 0, 0
| 0, 0, 1, 1, 0, 0, 0, 0, 0, 0
| 1, 1, 0, 0, 1, 0, 0, 0, 0, 0
| 0, 1, 0, 0, 0, 0, 0, 1, 0, 0
| 0, 0, 1, 0, 0, 0, 0, 0, 0, 0
| 0, 0, 0, 0, 0, 0, 0, 1, 1, 1
| 1, 0, 0, 0, 0, 0, 0, 0, 0, 1
| 0, 0, 0, 1, 0, 1, 0, 0, 0, 0
| 0, 0, 0, 0, 0, 1, 0, 0, 0, 0
| 0, 0, 0, 0, 0, 1, 1, 0, 0, 0 |];
vertexDeletionCost = [45, 45, 45, 45, 45, 45, 45, 45, 45, 45];
vertexInsertionCost = [45, 45, 45, 45, 45, 45, 45, 45, 45, 45];
vertexSubstitutionCost = [| 0.0, 90, 90, 90, 90, 90, 90, 90, 90, 90
| 90, 0.0, 90, 90, 90, 90, 90, 90, 90, 90
| 90, 90, 0.0, 90, 90, 90, 90, 90, 90, 90
| 90, 90, 90, 0.0, 90, 90, 90, 61.74544517614235, 90, 64.5174395028197
| 90, 90, 90, 90, 0.0, 90, 90, 90, 90, 90
| 90, 90, 90, 90, 90, 0.0, 90, 90, 90, 90
| 90, 90, 90, 90, 90, 90, 0.0, 90, 90, 90
| 90, 90, 90, 61.74544517614235, 90, 90, 90, 0.0, 90, 5.0
| 90, 90, 90, 90, 90, 90, 90, 90, 0.0, 90
| 90, 90, 90, 64.5174395028197, 90, 90, 90, 5.0, 90, 0.0 |];
edgeDeletionCost = [| 0.0, 0.0, 7.5, 0.0, 0.0, 0.0, 7.5, 0.0, 0.0, 0.0
| 0.0, 0.0, 7.5, 7.5, 0.0, 0.0, 0.0, 0.0, 0.0, 0.0
| 7.5, 7.5, 0.0, 0.0, 7.5, 0.0, 0.0, 0.0, 0.0, 0.0
| 0.0, 7.5, 0.0, 0.0, 0.0, 0.0, 0.0, 7.5, 0.0, 0.0
| 0.0, 0.0, 7.5, 0.0, 0.0, 0.0, 0.0, 0.0, 0.0, 0.0
| 0.0, 0.0, 0.0, 0.0, 0.0, 0.0, 0.0, 7.5, 7.5, 7.5
| 7.5, 0.0, 0.0, 0.0, 0.0, 0.0, 0.0, 0.0, 0.0, 7.5
| 0.0, 0.0, 0.0, 7.5, 0.0, 7.5, 0.0, 0.0, 0.0, 0.0
| 0.0, 0.0, 0.0, 0.0, 0.0, 7.5, 0.0, 0.0, 0.0, 0.0
| 0.0, 0.0, 0.0, 0.0, 0.0, 7.5, 7.5, 0.0, 0.0, 0.0 |];
edgeInsertionCost = [| 0.0, 0.0, 7.5, 0.0, 0.0, 0.0, 7.5, 0.0, 0.0, 0.0
| 0.0, 0.0, 7.5, 7.5, 0.0, 0.0, 0.0, 0.0, 0.0, 0.0
| 7.5, 7.5, 0.0, 0.0, 7.5, 0.0, 0.0, 0.0, 0.0, 0.0
| 0.0, 7.5, 0.0, 0.0, 0.0, 0.0, 0.0, 7.5, 0.0, 0.0
| 0.0, 0.0, 7.5, 0.0, 0.0, 0.0, 0.0, 0.0, 0.0, 0.0
| 0.0, 0.0, 0.0, 0.0, 0.0, 0.0, 0.0, 7.5, 7.5, 7.5
| 7.5, 0.0, 0.0, 0.0, 0.0, 0.0, 0.0, 0.0, 0.0, 7.5
| 0.0, 0.0, 0.0, 7.5, 0.0, 7.5, 0.0, 0.0, 0.0, 0.0
| 0.0, 0.0, 0.0, 0.0, 0.0, 7.5, 0.0, 0.0, 0.0, 0.0
| 0.0, 0.0, 0.0, 0.0, 0.0, 7.5, 7.5, 0.0, 0.0, 0.0 |];
edgeSubstitutionCost = array4d(1..n1, 1..n1, 1..n2, 1..n2, [0, 0, 7.5, 0, 0, 0, 7.5, 0, 0, 0, 0, 0, 7.5, 7.5, 0, 0, 0, 0, 0, 0, 7.5, 7.5, 0, 0, 7.5, 0, 0, 0, 0, 0, 0, 7.5, 0, 0, 0, 0, 0, 7.5, 0, 0, 0, 0, 7.5, 0, 0, 0, 0, 0, 0, 0, 0, 0, 0, 0, 0, 0, 0, 7.5, 7.5, 7.5, 7.5, 0, 0, 0, 0, 0, 0, 0, 0, 7.5, 0, 0, 0, 7.5, 0, 7.5, 0, 0, 0, 0, 0, 0, 0, 0, 0, 7.5, 0, 0, 0, 0, 0, 0, 0, 0, 0, 7.5, 7.5, 0, 0, 0, 0, 0, 7.5, 0, 0, 0, 7.5, 0, 0, 0, 0, 0, 7.5, 7.5, 0, 0, 0, 0, 0, 0, 7.5, 7.5, 0, 0, 7.5, 0, 0, 0, 0, 0, 0, 7.5, 0, 0, 0, 0, 0, 7.5, 0, 0, 0, 0, 7.5, 0, 0, 0, 0, 0, 0, 0, 0, 0, 0, 0, 0, 0, 0, 7.5, 7.5, 7.5, 7.5, 0, 0, 0, 0, 0, 0, 0, 0, 7.5, 0, 0, 0, 7.5, 0, 7.5, 0, 0, 0, 0, 0, 0, 0, 0, 0, 7.5, 0, 0, 0, 0, 0, 0, 0, 0, 0, 7.5, 7.5, 0, 0, 0, 7.5, 7.5, 0.0, 7.5, 7.5, 7.5, 0.0, 7.5, 7.5, 7.5, 7.5, 7.5, 0.0, 0.0, 7.5, 7.5, 7.5, 7.5, 7.5, 7.5, 0.0, 0.0, 7.5, 7.5, 0.0, 7.5, 7.5, 7.5, 7.5, 7.5, 7.5, 0.0, 7.5, 7.5, 7.5, 7.5, 7.5, 0.0, 7.5, 7.5, 7.5, 7.5, 0.0, 7.5, 7.5, 7.5, 7.5, 7.5, 7.5, 7.5, 7.5, 7.5, 7.5, 7.5, 7.5, 7.5, 7.5, 0.0, 0.0, 0.0, 0.0, 7.5, 7.5, 7.5, 7.5, 7.5, 7.5, 7.5, 7.5, 0.0, 7.5, 7.5, 7.5, 0.0, 7.5, 0.0, 7.5, 7.5, 7.5, 7.5, 7.5, 7.5, 7.5, 7.5, 7.5, 0.0, 7.5, 7.5, 7.5, 7.5, 7.5, 7.5, 7.5, 7.5, 7.5, 0.0, 0.0, 7.5, 7.5, 7.5, 0, 0, 7.5, 0, 0, 0, 7.5, 0, 0, 0, 0, 0, 7.5, 7.5, 0, 0, 0, 0, 0, 0, 7.5, 7.5, 0, 0, 7.5, 0, 0, 0, 0, 0, 0, 7.5, 0, 0, 0, 0, 0, 7.5, 0, 0, 0, 0, 7.5, 0, 0, 0, 0, 0, 0, 0, 0, 0, 0, 0, 0, 0, 0, 7.5, 7.5, 7.5, 7.5, 0, 0, 0, 0, 0, 0, 0, 0, 7.5, 0, 0, 0, 7.5, 0, 7.5, 0, 0, 0, 0, 0, 0, 0, 0, 0, 7.5, 0, 0, 0, 0, 0, 0, 0, 0, 0, 7.5, 7.5, 0, 0, 0, 0, 0, 7.5, 0, 0, 0, 7.5, 0, 0, 0, 0, 0, 7.5, 7.5, 0, 0, 0, 0, 0, 0, 7.5, 7.5, 0, 0, 7.5, 0, 0, 0, 0, 0, 0, 7.5, 0, 0, 0, 0, 0, 7.5, 0, 0, 0, 0, 7.5, 0, 0, 0, 0, 0, 0, 0, 0, 0, 0, 0, 0, 0, 0, 7.5, 7.5, 7.5, 7.5, 0, 0, 0, 0, 0, 0, 0, 0, 7.5, 0, 0, 0, 7.5, 0, 7.5, 0, 0, 0, 0, 0, 0, 0, 0, 0, 7.5, 0, 0, 0, 0, 0, 0, 0, 0, 0, 7.5, 7.5, 0, 0, 0, 0, 0, 7.5, 0, 0, 0, 7.5, 0, 0, 0, 0, 0, 7.5, 7.5, 0, 0, 0, 0, 0, 0, 7.5, 7.5, 0, 0, 7.5, 0, 0, 0, 0, 0, 0, 7.5, 0, 0, 0, 0, 0, 7.5, 0, 0, 0, 0, 7.5, 0, 0, 0, 0, 0, 0, 0, 0, 0, 0, 0, 0, 0, 0, 7.5, 7.5, 7.5, 7.5, 0, 0, 0, 0, 0, 0, 0, 0, 7.5, 0, 0, 0, 7.5, 0, 7.5, 0, 0, 0, 0, 0, 0, 0, 0, 0, 7.5, 0, 0, 0, 0, 0, 0, 0, 0, 0, 7.5, 7.5, 0, 0, 0, 7.5, 7.5, 0.0, 7.5, 7.5, 7.5, 0.0, 7.5, 7.5, 7.5, 7.5, 7.5, 0.0, 0.0, 7.5, 7.5, 7.5, 7.5, 7.5, 7.5, 0.0, 0.0, 7.5, 7.5, 0.0, 7.5, 7.5, 7.5, 7.5, 7.5, 7.5, 0.0, 7.5, 7.5, 7.5, 7.5, 7.5, 0.0, 7.5, 7.5, 7.5, 7.5, 0.0, 7.5, 7.5, 7.5, 7.5, 7.5, 7.5, 7.5, 7.5, 7.5, 7.5, 7.5, 7.5, 7.5, 7.5, 0.0, 0.0, 0.0, 0.0, 7.5, 7.5, 7.5, 7.5, 7.5, 7.5, 7.5, 7.5, 0.0, 7.5, 7.5, 7.5, 0.0, 7.5, 0.0, 7.5, 7.5, 7.5, 7.5, 7.5, 7.5, 7.5, 7.5, 7.5, 0.0, 7.5, 7.5, 7.5, 7.5, 7.5, 7.5, 7.5, 7.5, 7.5, 0.0, 0.0, 7.5, 7.5, 7.5, 0, 0, 7.5, 0, 0, 0, 7.5, 0, 0, 0, 0, 0, 7.5, 7.5, 0, 0, 0, 0, 0, 0, 7.5, 7.5, 0, 0, 7.5, 0, 0, 0, 0, 0, 0, 7.5, 0, 0, 0, 0, 0, 7.5, 0, 0, 0, 0, 7.5, 0, 0, 0, 0, 0, 0, 0, 0, 0, 0, 0, 0, 0, 0, 7.5, 7.5, 7.5, 7.5, 0, 0, 0, 0, 0, 0, 0, 0, 7.5, 0, 0, 0, 7.5, 0, 7.5, 0, 0, 0, 0, 0, 0, 0, 0, 0, 7.5, 0, 0, 0, 0, 0, 0, 0, 0, 0, 7.5, 7.5, 0, 0, 0, 0, 0, 7.5, 0, 0, 0, 7.5, 0, 0, 0, 0, 0, 7.5, 7.5, 0, 0, 0, 0, 0, 0, 7.5, 7.5, 0, 0, 7.5, 0, 0, 0, 0, 0, 0, 7.5, 0, 0, 0, 0, 0, 7.5, 0, 0, 0, 0, 7.5, 0, 0, 0, 0, 0, 0, 0, 0, 0, 0, 0, 0, 0, 0, 7.5, 7.5, 7.5, 7.5, 0, 0, 0, 0, 0, 0, 0, 0, 7.5, 0, 0, 0, 7.5, 0, 7.5, 0, 0, 0, 0, 0, 0, 0, 0, 0, 7.5, 0, 0, 0, 0, 0, 0, 0, 0, 0, 7.5, 7.5, 0, 0, 0, 0, 0, 7.5, 0, 0, 0, 7.5, 0, 0, 0, 0, 0, 7.5, 7.5, 0, 0, 0, 0, 0, 0, 7.5, 7.5, 0, 0, 7.5, 0, 0, 0, 0, 0, 0, 7.5, 0, 0, 0, 0, 0, 7.5, 0, 0, 0, 0, 7.5, 0, 0, 0, 0, 0, 0, 0, 0, 0, 0, 0, 0, 0, 0, 7.5, 7.5, 7.5, 7.5, 0, 0, 0, 0, 0, 0, 0, 0, 7.5, 0, 0, 0, 7.5, 0, 7.5, 0, 0, 0, 0, 0, 0, 0, 0, 0, 7.5, 0, 0, 0, 0, 0, 0, 0, 0, 0, 7.5, 7.5, 0, 0, 0, 0, 0, 7.5, 0, 0, 0, 7.5, 0, 0, 0, 0, 0, 7.5, 7.5, 0, 0, 0, 0, 0, 0, 7.5, 7.5, 0, 0, 7.5, 0, 0, 0, 0, 0, 0, 7.5, 0, 0, 0, 0, 0, 7.5, 0, 0, 0, 0, 7.5, 0, 0, 0, 0, 0, 0, 0, 0, 0, 0, 0, 0, 0, 0, 7.5, 7.5, 7.5, 7.5, 0, 0, 0, 0, 0, 0, 0, 0, 7.5, 0, 0, 0, 7.5, 0, 7.5, 0, 0, 0, 0, 0, 0, 0, 0, 0, 7.5, 0, 0, 0, 0, 0, 0, 0, 0, 0, 7.5, 7.5, 0, 0, 0, 0, 0, 7.5, 0, 0, 0, 7.5, 0, 0, 0, 0, 0, 7.5, 7.5, 0, 0, 0, 0, 0, 0, 7.5, 7.5, 0, 0, 7.5, 0, 0, 0, 0, 0, 0, 7.5, 0, 0, 0, 0, 0, 7.5, 0, 0, 0, 0, 7.5, 0, 0, 0, 0, 0, 0, 0, 0, 0, 0, 0, 0, 0, 0, 7.5, 7.5, 7.5, 7.5, 0, 0, 0, 0, 0, 0, 0, 0, 7.5, 0, 0, 0, 7.5, 0, 7.5, 0, 0, 0, 0, 0, 0, 0, 0, 0, 7.5, 0, 0, 0, 0, 0, 0, 0, 0, 0, 7.5, 7.5, 0, 0, 0, 7.5, 7.5, 0.0, 7.5, 7.5, 7.5, 0.0, 7.5, 7.5, 7.5, 7.5, 7.5, 0.0, 0.0, 7.5, 7.5, 7.5, 7.5, 7.5, 7.5, 0.0, 0.0, 7.5, 7.5, 0.0, 7.5, 7.5, 7.5, 7.5, 7.5, 7.5, 0.0, 7.5, 7.5, 7.5, 7.5, 7.5, 0.0, 7.5, 7.5, 7.5, 7.5, 0.0, 7.5, 7.5, 7.5, 7.5, 7.5, 7.5, 7.5, 7.5, 7.5, 7.5, 7.5, 7.5, 7.5, 7.5, 0.0, 0.0, 0.0, 0.0, 7.5, 7.5, 7.5, 7.5, 7.5, 7.5, 7.5, 7.5, 0.0, 7.5, 7.5, 7.5, 0.0, 7.5, 0.0, 7.5, 7.5, 7.5, 7.5, 7.5, 7.5, 7.5, 7.5, 7.5, 0.0, 7.5, 7.5, 7.5, 7.5, 7.5, 7.5, 7.5, 7.5, 7.5, 0.0, 0.0, 7.5, 7.5, 7.5, 7.5, 7.5, 0.0, 7.5, 7.5, 7.5, 0.0, 7.5, 7.5, 7.5, 7.5, 7.5, 0.0, 0.0, 7.5, 7.5, 7.5, 7.5, 7.5, 7.5, 0.0, 0.0, 7.5, 7.5, 0.0, 7.5, 7.5, 7.5, 7.5, 7.5, 7.5, 0.0, 7.5, 7.5, 7.5, 7.5, 7.5, 0.0, 7.5, 7.5, 7.5, 7.5, 0.0, 7.5, 7.5, 7.5, 7.5, 7.5, 7.5, 7.5, 7.5, 7.5, 7.5, 7.5, 7.5, 7.5, 7.5, 0.0, 0.0, 0.0, 0.0, 7.5, 7.5, 7.5, 7.5, 7.5, 7.5, 7.5, 7.5, 0.0, 7.5, 7.5, 7.5, 0.0, 7.5, 0.0, 7.5, 7.5, 7.5, 7.5, 7.5, 7.5, 7.5, 7.5, 7.5, 0.0, 7.5, 7.5, 7.5, 7.5, 7.5, 7.5, 7.5, 7.5, 7.5, 0.0, 0.0, 7.5, 7.5, 7.5, 0, 0, 7.5, 0, 0, 0, 7.5, 0, 0, 0, 0, 0, 7.5, 7.5, 0, 0, 0, 0, 0, 0, 7.5, 7.5, 0, 0, 7.5, 0, 0, 0, 0, 0, 0, 7.5, 0, 0, 0, 0, 0, 7.5, 0, 0, 0, 0, 7.5, 0, 0, 0, 0, 0, 0, 0, 0, 0, 0, 0, 0, 0, 0, 7.5, 7.5, 7.5, 7.5, 0, 0, 0, 0, 0, 0, 0, 0, 7.5, 0, 0, 0, 7.5, 0, 7.5, 0, 0, 0, 0, 0, 0, 0, 0, 0, 7.5, 0, 0, 0, 0, 0, 0, 0, 0, 0, 7.5, 7.5, 0, 0, 0, 0, 0, 7.5, 0, 0, 0, 7.5, 0, 0, 0, 0, 0, 7.5, 7.5, 0, 0, 0, 0, 0, 0, 7.5, 7.5, 0, 0, 7.5, 0, 0, 0, 0, 0, 0, 7.5, 0, 0, 0, 0, 0, 7.5, 0, 0, 0, 0, 7.5, 0, 0, 0, 0, 0, 0, 0, 0, 0, 0, 0, 0, 0, 0, 7.5, 7.5, 7.5, 7.5, 0, 0, 0, 0, 0, 0, 0, 0, 7.5, 0, 0, 0, 7.5, 0, 7.5, 0, 0, 0, 0, 0, 0, 0, 0, 0, 7.5, 0, 0, 0, 0, 0, 0, 0, 0, 0, 7.5, 7.5, 0, 0, 0, 0, 0, 7.5, 0, 0, 0, 7.5, 0, 0, 0, 0, 0, 7.5, 7.5, 0, 0, 0, 0, 0, 0, 7.5, 7.5, 0, 0, 7.5, 0, 0, 0, 0, 0, 0, 7.5, 0, 0, 0, 0, 0, 7.5, 0, 0, 0, 0, 7.5, 0, 0, 0, 0, 0, 0, 0, 0, 0, 0, 0, 0, 0, 0, 7.5, 7.5, 7.5, 7.5, 0, 0, 0, 0, 0, 0, 0, 0, 7.5, 0, 0, 0, 7.5, 0, 7.5, 0, 0, 0, 0, 0, 0, 0, 0, 0, 7.5, 0, 0, 0, 0, 0, 0, 0, 0, 0, 7.5, 7.5, 0, 0, 0, 0, 0, 7.5, 0, 0, 0, 7.5, 0, 0, 0, 0, 0, 7.5, 7.5, 0, 0, 0, 0, 0, 0, 7.5, 7.5, 0, 0, 7.5, 0, 0, 0, 0, 0, 0, 7.5, 0, 0, 0, 0, 0, 7.5, 0, 0, 0, 0, 7.5, 0, 0, 0, 0, 0, 0, 0, 0, 0, 0, 0, 0, 0, 0, 7.5, 7.5, 7.5, 7.5, 0, 0, 0, 0, 0, 0, 0, 0, 7.5, 0, 0, 0, 7.5, 0, 7.5, 0, 0, 0, 0, 0, 0, 0, 0, 0, 7.5, 0, 0, 0, 0, 0, 0, 0, 0, 0, 7.5, 7.5, 0, 0, 0, 0, 0, 7.5, 0, 0, 0, 7.5, 0, 0, 0, 0, 0, 7.5, 7.5, 0, 0, 0, 0, 0, 0, 7.5, 7.5, 0, 0, 7.5, 0, 0, 0, 0, 0, 0, 7.5, 0, 0, 0, 0, 0, 7.5, 0, 0, 0, 0, 7.5, 0, 0, 0, 0, 0, 0, 0, 0, 0, 0, 0, 0, 0, 0, 7.5, 7.5, 7.5, 7.5, 0, 0, 0, 0, 0, 0, 0, 0, 7.5, 0, 0, 0, 7.5, 0, 7.5, 0, 0, 0, 0, 0, 0, 0, 0, 0, 7.5, 0, 0, 0, 0, 0, 0, 0, 0, 0, 7.5, 7.5, 0, 0, 0, 0, 0, 7.5, 0, 0, 0, 7.5, 0, 0, 0, 0, 0, 7.5, 7.5, 0, 0, 0, 0, 0, 0, 7.5, 7.5, 0, 0, 7.5, 0, 0, 0, 0, 0, 0, 7.5, 0, 0, 0, 0, 0, 7.5, 0, 0, 0, 0, 7.5, 0, 0, 0, 0, 0, 0, 0, 0, 0, 0, 0, 0, 0, 0, 7.5, 7.5, 7.5, 7.5, 0, 0, 0, 0, 0, 0, 0, 0, 7.5, 0, 0, 0, 7.5, 0, 7.5, 0, 0, 0, 0, 0, 0, 0, 0, 0, 7.5, 0, 0, 0, 0, 0, 0, 0, 0, 0, 7.5, 7.5, 0, 0, 0, 7.5, 7.5, 0.0, 7.5, 7.5, 7.5, 0.0, 7.5, 7.5, 7.5, 7.5, 7.5, 0.0, 0.0, 7.5, 7.5, 7.5, 7.5, 7.5, 7.5, 0.0, 0.0, 7.5, 7.5, 0.0, 7.5, 7.5, 7.5, 7.5, 7.5, 7.5, 0.0, 7.5, 7.5, 7.5, 7.5, 7.5, 0.0, 7.5, 7.5, 7.5, 7.5, 0.0, 7.5, 7.5, 7.5, 7.5, 7.5, 7.5, 7.5, 7.5, 7.5, 7.5, 7.5, 7.5, 7.5, 7.5, 0.0, 0.0, 0.0, 0.0, 7.5, 7.5, 7.5, 7.5, 7.5, 7.5, 7.5, 7.5, 0.0, 7.5, 7.5, 7.5, 0.0, 7.5, 0.0, 7.5, 7.5, 7.5, 7.5, 7.5, 7.5, 7.5, 7.5, 7.5, 0.0, 7.5, 7.5, 7.5, 7.5, 7.5, 7.5, 7.5, 7.5, 7.5, 0.0, 0.0, 7.5, 7.5, 7.5, 7.5, 7.5, 0.0, 7.5, 7.5, 7.5, 0.0, 7.5, 7.5, 7.5, 7.5, 7.5, 0.0, 0.0, 7.5, 7.5, 7.5, 7.5, 7.5, 7.5, 0.0, 0.0, 7.5, 7.5, 0.0, 7.5, 7.5, 7.5, 7.5, 7.5, 7.5, 0.0, 7.5, 7.5, 7.5, 7.5, 7.5, 0.0, 7.5, 7.5, 7.5, 7.5, 0.0, 7.5, 7.5, 7.5, 7.5, 7.5, 7.5, 7.5, 7.5, 7.5, 7.5, 7.5, 7.5, 7.5, 7.5, 0.0, 0.0, 0.0, 0.0, 7.5, 7.5, 7.5, 7.5, 7.5, 7.5, 7.5, 7.5, 0.0, 7.5, 7.5, 7.5, 0.0, 7.5, 0.0, 7.5, 7.5, 7.5, 7.5, 7.5, 7.5, 7.5, 7.5, 7.5, 0.0, 7.5, 7.5, 7.5, 7.5, 7.5, 7.5, 7.5, 7.5, 7.5, 0.0, 0.0, 7.5, 7.5, 7.5, 0, 0, 7.5, 0, 0, 0, 7.5, 0, 0, 0, 0, 0, 7.5, 7.5, 0, 0, 0, 0, 0, 0, 7.5, 7.5, 0, 0, 7.5, 0, 0, 0, 0, 0, 0, 7.5, 0, 0, 0, 0, 0, 7.5, 0, 0, 0, 0, 7.5, 0, 0, 0, 0, 0, 0, 0, 0, 0, 0, 0, 0, 0, 0, 7.5, 7.5, 7.5, 7.5, 0, 0, 0, 0, 0, 0, 0, 0, 7.5, 0, 0, 0, 7.5, 0, 7.5, 0, 0, 0, 0, 0, 0, 0, 0, 0, 7.5, 0, 0, 0, 0, 0, 0, 0, 0, 0, 7.5, 7.5, 0, 0, 0, 0, 0, 7.5, 0, 0, 0, 7.5, 0, 0, 0, 0, 0, 7.5, 7.5, 0, 0, 0, 0, 0, 0, 7.5, 7.5, 0, 0, 7.5, 0, 0, 0, 0, 0, 0, 7.5, 0, 0, 0, 0, 0, 7.5, 0, 0, 0, 0, 7.5, 0, 0, 0, 0, 0, 0, 0, 0, 0, 0, 0, 0, 0, 0, 7.5, 7.5, 7.5, 7.5, 0, 0, 0, 0, 0, 0, 0, 0, 7.5, 0, 0, 0, 7.5, 0, 7.5, 0, 0, 0, 0, 0, 0, 0, 0, 0, 7.5, 0, 0, 0, 0, 0, 0, 0, 0, 0, 7.5, 7.5, 0, 0, 0, 7.5, 7.5, 0.0, 7.5, 7.5, 7.5, 0.0, 7.5, 7.5, 7.5, 7.5, 7.5, 0.0, 0.0, 7.5, 7.5, 7.5, 7.5, 7.5, 7.5, 0.0, 0.0, 7.5, 7.5, 0.0, 7.5, 7.5, 7.5, 7.5, 7.5, 7.5, 0.0, 7.5, 7.5, 7.5, 7.5, 7.5, 0.0, 7.5, 7.5, 7.5, 7.5, 0.0, 7.5, 7.5, 7.5, 7.5, 7.5, 7.5, 7.5, 7.5, 7.5, 7.5, 7.5, 7.5, 7.5, 7.5, 0.0, 0.0, 0.0, 0.0, 7.5, 7.5, 7.5, 7.5, 7.5, 7.5, 7.5, 7.5, 0.0, 7.5, 7.5, 7.5, 0.0, 7.5, 0.0, 7.5, 7.5, 7.5, 7.5, 7.5, 7.5, 7.5, 7.5, 7.5, 0.0, 7.5, 7.5, 7.5, 7.5, 7.5, 7.5, 7.5, 7.5, 7.5, 0.0, 0.0, 7.5, 7.5, 7.5, 0, 0, 7.5, 0, 0, 0, 7.5, 0, 0, 0, 0, 0, 7.5, 7.5, 0, 0, 0, 0, 0, 0, 7.5, 7.5, 0, 0, 7.5, 0, 0, 0, 0, 0, 0, 7.5, 0, 0, 0, 0, 0, 7.5, 0, 0, 0, 0, 7.5, 0, 0, 0, 0, 0, 0, 0, 0, 0, 0, 0, 0, 0, 0, 7.5, 7.5, 7.5, 7.5, 0, 0, 0, 0, 0, 0, 0, 0, 7.5, 0, 0, 0, 7.5, 0, 7.5, 0, 0, 0, 0, 0, 0, 0, 0, 0, 7.5, 0, 0, 0, 0, 0, 0, 0, 0, 0, 7.5, 7.5, 0, 0, 0, 0, 0, 7.5, 0, 0, 0, 7.5, 0, 0, 0, 0, 0, 7.5, 7.5, 0, 0, 0, 0, 0, 0, 7.5, 7.5, 0, 0, 7.5, 0, 0, 0, 0, 0, 0, 7.5, 0, 0, 0, 0, 0, 7.5, 0, 0, 0, 0, 7.5, 0, 0, 0, 0, 0, 0, 0, 0, 0, 0, 0, 0, 0, 0, 7.5, 7.5, 7.5, 7.5, 0, 0, 0, 0, 0, 0, 0, 0, 7.5, 0, 0, 0, 7.5, 0, 7.5, 0, 0, 0, 0, 0, 0, 0, 0, 0, 7.5, 0, 0, 0, 0, 0, 0, 0, 0, 0, 7.5, 7.5, 0, 0, 0, 0, 0, 7.5, 0, 0, 0, 7.5, 0, 0, 0, 0, 0, 7.5, 7.5, 0, 0, 0, 0, 0, 0, 7.5, 7.5, 0, 0, 7.5, 0, 0, 0, 0, 0, 0, 7.5, 0, 0, 0, 0, 0, 7.5, 0, 0, 0, 0, 7.5, 0, 0, 0, 0, 0, 0, 0, 0, 0, 0, 0, 0, 0, 0, 7.5, 7.5, 7.5, 7.5, 0, 0, 0, 0, 0, 0, 0, 0, 7.5, 0, 0, 0, 7.5, 0, 7.5, 0, 0, 0, 0, 0, 0, 0, 0, 0, 7.5, 0, 0, 0, 0, 0, 0, 0, 0, 0, 7.5, 7.5, 0, 0, 0, 0, 0, 7.5, 0, 0, 0, 7.5, 0, 0, 0, 0, 0, 7.5, 7.5, 0, 0, 0, 0, 0, 0, 7.5, 7.5, 0, 0, 7.5, 0, 0, 0, 0, 0, 0, 7.5, 0, 0, 0, 0, 0, 7.5, 0, 0, 0, 0, 7.5, 0, 0, 0, 0, 0, 0, 0, 0, 0, 0, 0, 0, 0, 0, 7.5, 7.5, 7.5, 7.5, 0, 0, 0, 0, 0, 0, 0, 0, 7.5, 0, 0, 0, 7.5, 0, 7.5, 0, 0, 0, 0, 0, 0, 0, 0, 0, 7.5, 0, 0, 0, 0, 0, 0, 0, 0, 0, 7.5, 7.5, 0, 0, 0, 0, 0, 7.5, 0, 0, 0, 7.5, 0, 0, 0, 0, 0, 7.5, 7.5, 0, 0, 0, 0, 0, 0, 7.5, 7.5, 0, 0, 7.5, 0, 0, 0, 0, 0, 0, 7.5, 0, 0, 0, 0, 0, 7.5, 0, 0, 0, 0, 7.5, 0, 0, 0, 0, 0, 0, 0, 0, 0, 0, 0, 0, 0, 0, 7.5, 7.5, 7.5, 7.5, 0, 0, 0, 0, 0, 0, 0, 0, 7.5, 0, 0, 0, 7.5, 0, 7.5, 0, 0, 0, 0, 0, 0, 0, 0, 0, 7.5, 0, 0, 0, 0, 0, 0, 0, 0, 0, 7.5, 7.5, 0, 0, 0, 0, 0, 7.5, 0, 0, 0, 7.5, 0, 0, 0, 0, 0, 7.5, 7.5, 0, 0, 0, 0, 0, 0, 7.5, 7.5, 0, 0, 7.5, 0, 0, 0, 0, 0, 0, 7.5, 0, 0, 0, 0, 0, 7.5, 0, 0, 0, 0, 7.5, 0, 0, 0, 0, 0, 0, 0, 0, 0, 0, 0, 0, 0, 0, 7.5, 7.5, 7.5, 7.5, 0, 0, 0, 0, 0, 0, 0, 0, 7.5, 0, 0, 0, 7.5, 0, 7.5, 0, 0, 0, 0, 0, 0, 0, 0, 0, 7.5, 0, 0, 0, 0, 0, 0, 0, 0, 0, 7.5, 7.5, 0, 0, 0, 7.5, 7.5, 0.0, 7.5, 7.5, 7.5, 0.0, 7.5, 7.5, 7.5, 7.5, 7.5, 0.0, 0.0, 7.5, 7.5, 7.5, 7.5, 7.5, 7.5, 0.0, 0.0, 7.5, 7.5, 0.0, 7.5, 7.5, 7.5, 7.5, 7.5, 7.5, 0.0, 7.5, 7.5, 7.5, 7.5, 7.5, 0.0, 7.5, 7.5, 7.5, 7.5, 0.0, 7.5, 7.5, 7.5, 7.5, 7.5, 7.5, 7.5, 7.5, 7.5, 7.5, 7.5, 7.5, 7.5, 7.5, 0.0, 0.0, 0.0, 0.0, 7.5, 7.5, 7.5, 7.5, 7.5, 7.5, 7.5, 7.5, 0.0, 7.5, 7.5, 7.5, 0.0, 7.5, 0.0, 7.5, 7.5, 7.5, 7.5, 7.5, 7.5, 7.5, 7.5, 7.5, 0.0, 7.5, 7.5, 7.5, 7.5, 7.5, 7.5, 7.5, 7.5, 7.5, 0.0, 0.0, 7.5, 7.5, 7.5, 0, 0, 7.5, 0, 0, 0, 7.5, 0, 0, 0, 0, 0, 7.5, 7.5, 0, 0, 0, 0, 0, 0, 7.5, 7.5, 0, 0, 7.5, 0, 0, 0, 0, 0, 0, 7.5, 0, 0, 0, 0, 0, 7.5, 0, 0, 0, 0, 7.5, 0, 0, 0, 0, 0, 0, 0, 0, 0, 0, 0, 0, 0, 0, 7.5, 7.5, 7.5, 7.5, 0, 0, 0, 0, 0, 0, 0, 0, 7.5, 0, 0, 0, 7.5, 0, 7.5, 0, 0, 0, 0, 0, 0, 0, 0, 0, 7.5, 0, 0, 0, 0, 0, 0, 0, 0, 0, 7.5, 7.5, 0, 0, 0, 0, 0, 7.5, 0, 0, 0, 7.5, 0, 0, 0, 0, 0, 7.5, 7.5, 0, 0, 0, 0, 0, 0, 7.5, 7.5, 0, 0, 7.5, 0, 0, 0, 0, 0, 0, 7.5, 0, 0, 0, 0, 0, 7.5, 0, 0, 0, 0, 7.5, 0, 0, 0, 0, 0, 0, 0, 0, 0, 0, 0, 0, 0, 0, 7.5, 7.5, 7.5, 7.5, 0, 0, 0, 0, 0, 0, 0, 0, 7.5, 0, 0, 0, 7.5, 0, 7.5, 0, 0, 0, 0, 0, 0, 0, 0, 0, 7.5, 0, 0, 0, 0, 0, 0, 0, 0, 0, 7.5, 7.5, 0, 0, 0, 0, 0, 7.5, 0, 0, 0, 7.5, 0, 0, 0, 0, 0, 7.5, 7.5, 0, 0, 0, 0, 0, 0, 7.5, 7.5, 0, 0, 7.5, 0, 0, 0, 0, 0, 0, 7.5, 0, 0, 0, 0, 0, 7.5, 0, 0, 0, 0, 7.5, 0, 0, 0, 0, 0, 0, 0, 0, 0, 0, 0, 0, 0, 0, 7.5, 7.5, 7.5, 7.5, 0, 0, 0, 0, 0, 0, 0, 0, 7.5, 0, 0, 0, 7.5, 0, 7.5, 0, 0, 0, 0, 0, 0, 0, 0, 0, 7.5, 0, 0, 0, 0, 0, 0, 0, 0, 0, 7.5, 7.5, 0, 0, 0, 0, 0, 7.5, 0, 0, 0, 7.5, 0, 0, 0, 0, 0, 7.5, 7.5, 0, 0, 0, 0, 0, 0, 7.5, 7.5, 0, 0, 7.5, 0, 0, 0, 0, 0, 0, 7.5, 0, 0, 0, 0, 0, 7.5, 0, 0, 0, 0, 7.5, 0, 0, 0, 0, 0, 0, 0, 0, 0, 0, 0, 0, 0, 0, 7.5, 7.5, 7.5, 7.5, 0, 0, 0, 0, 0, 0, 0, 0, 7.5, 0, 0, 0, 7.5, 0, 7.5, 0, 0, 0, 0, 0, 0, 0, 0, 0, 7.5, 0, 0, 0, 0, 0, 0, 0, 0, 0, 7.5, 7.5, 0, 0, 0, 0, 0, 7.5, 0, 0, 0, 7.5, 0, 0, 0, 0, 0, 7.5, 7.5, 0, 0, 0, 0, 0, 0, 7.5, 7.5, 0, 0, 7.5, 0, 0, 0, 0, 0, 0, 7.5, 0, 0, 0, 0, 0, 7.5, 0, 0, 0, 0, 7.5, 0, 0, 0, 0, 0, 0, 0, 0, 0, 0, 0, 0, 0, 0, 7.5, 7.5, 7.5, 7.5, 0, 0, 0, 0, 0, 0, 0, 0, 7.5, 0, 0, 0, 7.5, 0, 7.5, 0, 0, 0, 0, 0, 0, 0, 0, 0, 7.5, 0, 0, 0, 0, 0, 0, 0, 0, 0, 7.5, 7.5, 0, 0, 0, 7.5, 7.5, 0.0, 7.5, 7.5, 7.5, 0.0, 7.5, 7.5, 7.5, 7.5, 7.5, 0.0, 0.0, 7.5, 7.5, 7.5, 7.5, 7.5, 7.5, 0.0, 0.0, 7.5, 7.5, 0.0, 7.5, 7.5, 7.5, 7.5, 7.5, 7.5, 0.0, 7.5, 7.5, 7.5, 7.5, 7.5, 0.0, 7.5, 7.5, 7.5, 7.5, 0.0, 7.5, 7.5, 7.5, 7.5, 7.5, 7.5, 7.5, 7.5, 7.5, 7.5, 7.5, 7.5, 7.5, 7.5, 0.0, 0.0, 0.0, 0.0, 7.5, 7.5, 7.5, 7.5, 7.5, 7.5, 7.5, 7.5, 0.0, 7.5, 7.5, 7.5, 0.0, 7.5, 0.0, 7.5, 7.5, 7.5, 7.5, 7.5, 7.5, 7.5, 7.5, 7.5, 0.0, 7.5, 7.5, 7.5, 7.5, 7.5, 7.5, 7.5, 7.5, 7.5, 0.0, 0.0, 7.5, 7.5, 7.5, 0, 0, 7.5, 0, 0, 0, 7.5, 0, 0, 0, 0, 0, 7.5, 7.5, 0, 0, 0, 0, 0, 0, 7.5, 7.5, 0, 0, 7.5, 0, 0, 0, 0, 0, 0, 7.5, 0, 0, 0, 0, 0, 7.5, 0, 0, 0, 0, 7.5, 0, 0, 0, 0, 0, 0, 0, 0, 0, 0, 0, 0, 0, 0, 7.5, 7.5, 7.5, 7.5, 0, 0, 0, 0, 0, 0, 0, 0, 7.5, 0, 0, 0, 7.5, 0, 7.5, 0, 0, 0, 0, 0, 0, 0, 0, 0, 7.5, 0, 0, 0, 0, 0, 0, 0, 0, 0, 7.5, 7.5, 0, 0, 0, 0, 0, 7.5, 0, 0, 0, 7.5, 0, 0, 0, 0, 0, 7.5, 7.5, 0, 0, 0, 0, 0, 0, 7.5, 7.5, 0, 0, 7.5, 0, 0, 0, 0, 0, 0, 7.5, 0, 0, 0, 0, 0, 7.5, 0, 0, 0, 0, 7.5, 0, 0, 0, 0, 0, 0, 0, 0, 0, 0, 0, 0, 0, 0, 7.5, 7.5, 7.5, 7.5, 0, 0, 0, 0, 0, 0, 0, 0, 7.5, 0, 0, 0, 7.5, 0, 7.5, 0, 0, 0, 0, 0, 0, 0, 0, 0, 7.5, 0, 0, 0, 0, 0, 0, 0, 0, 0, 7.5, 7.5, 0, 0, 0, 0, 0, 7.5, 0, 0, 0, 7.5, 0, 0, 0, 0, 0, 7.5, 7.5, 0, 0, 0, 0, 0, 0, 7.5, 7.5, 0, 0, 7.5, 0, 0, 0, 0, 0, 0, 7.5, 0, 0, 0, 0, 0, 7.5, 0, 0, 0, 0, 7.5, 0, 0, 0, 0, 0, 0, 0, 0, 0, 0, 0, 0, 0, 0, 7.5, 7.5, 7.5, 7.5, 0, 0, 0, 0, 0, 0, 0, 0, 7.5, 0, 0, 0, 7.5, 0, 7.5, 0, 0, 0, 0, 0, 0, 0, 0, 0, 7.5, 0, 0, 0, 0, 0, 0, 0, 0, 0, 7.5, 7.5, 0, 0, 0, 0, 0, 7.5, 0, 0, 0, 7.5, 0, 0, 0, 0, 0, 7.5, 7.5, 0, 0, 0, 0, 0, 0, 7.5, 7.5, 0, 0, 7.5, 0, 0, 0, 0, 0, 0, 7.5, 0, 0, 0, 0, 0, 7.5, 0, 0, 0, 0, 7.5, 0, 0, 0, 0, 0, 0, 0, 0, 0, 0, 0, 0, 0, 0, 7.5, 7.5, 7.5, 7.5, 0, 0, 0, 0, 0, 0, 0, 0, 7.5, 0, 0, 0, 7.5, 0, 7.5, 0, 0, 0, 0, 0, 0, 0, 0, 0, 7.5, 0, 0, 0, 0, 0, 0, 0, 0, 0, 7.5, 7.5, 0, 0, 0, 7.5, 7.5, 0.0, 7.5, 7.5, 7.5, 0.0, 7.5, 7.5, 7.5, 7.5, 7.5, 0.0, 0.0, 7.5, 7.5, 7.5, 7.5, 7.5, 7.5, 0.0, 0.0, 7.5, 7.5, 0.0, 7.5, 7.5, 7.5, 7.5, 7.5, 7.5, 0.0, 7.5, 7.5, 7.5, 7.5, 7.5, 0.0, 7.5, 7.5, 7.5, 7.5, 0.0, 7.5, 7.5, 7.5, 7.5, 7.5, 7.5, 7.5, 7.5, 7.5, 7.5, 7.5, 7.5, 7.5, 7.5, 0.0, 0.0, 0.0, 0.0, 7.5, 7.5, 7.5, 7.5, 7.5, 7.5, 7.5, 7.5, 0.0, 7.5, 7.5, 7.5, 0.0, 7.5, 0.0, 7.5, 7.5, 7.5, 7.5, 7.5, 7.5, 7.5, 7.5, 7.5, 0.0, 7.5, 7.5, 7.5, 7.5, 7.5, 7.5, 7.5, 7.5, 7.5, 0.0, 0.0, 7.5, 7.5, 7.5, 0, 0, 7.5, 0, 0, 0, 7.5, 0, 0, 0, 0, 0, 7.5, 7.5, 0, 0, 0, 0, 0, 0, 7.5, 7.5, 0, 0, 7.5, 0, 0, 0, 0, 0, 0, 7.5, 0, 0, 0, 0, 0, 7.5, 0, 0, 0, 0, 7.5, 0, 0, 0, 0, 0, 0, 0, 0, 0, 0, 0, 0, 0, 0, 7.5, 7.5, 7.5, 7.5, 0, 0, 0, 0, 0, 0, 0, 0, 7.5, 0, 0, 0, 7.5, 0, 7.5, 0, 0, 0, 0, 0, 0, 0, 0, 0, 7.5, 0, 0, 0, 0, 0, 0, 0, 0, 0, 7.5, 7.5, 0, 0, 0, 0, 0, 7.5, 0, 0, 0, 7.5, 0, 0, 0, 0, 0, 7.5, 7.5, 0, 0, 0, 0, 0, 0, 7.5, 7.5, 0, 0, 7.5, 0, 0, 0, 0, 0, 0, 7.5, 0, 0, 0, 0, 0, 7.5, 0, 0, 0, 0, 7.5, 0, 0, 0, 0, 0, 0, 0, 0, 0, 0, 0, 0, 0, 0, 7.5, 7.5, 7.5, 7.5, 0, 0, 0, 0, 0, 0, 0, 0, 7.5, 0, 0, 0, 7.5, 0, 7.5, 0, 0, 0, 0, 0, 0, 0, 0, 0, 7.5, 0, 0, 0, 0, 0, 0, 0, 0, 0, 7.5, 7.5, 0, 0, 0, 0, 0, 7.5, 0, 0, 0, 7.5, 0, 0, 0, 0, 0, 7.5, 7.5, 0, 0, 0, 0, 0, 0, 7.5, 7.5, 0, 0, 7.5, 0, 0, 0, 0, 0, 0, 7.5, 0, 0, 0, 0, 0, 7.5, 0, 0, 0, 0, 7.5, 0, 0, 0, 0, 0, 0, 0, 0, 0, 0, 0, 0, 0, 0, 7.5, 7.5, 7.5, 7.5, 0, 0, 0, 0, 0, 0, 0, 0, 7.5, 0, 0, 0, 7.5, 0, 7.5, 0, 0, 0, 0, 0, 0, 0, 0, 0, 7.5, 0, 0, 0, 0, 0, 0, 0, 0, 0, 7.5, 7.5, 0, 0, 0, 0, 0, 7.5, 0, 0, 0, 7.5, 0, 0, 0, 0, 0, 7.5, 7.5, 0, 0, 0, 0, 0, 0, 7.5, 7.5, 0, 0, 7.5, 0, 0, 0, 0, 0, 0, 7.5, 0, 0, 0, 0, 0, 7.5, 0, 0, 0, 0, 7.5, 0, 0, 0, 0, 0, 0, 0, 0, 0, 0, 0, 0, 0, 0, 7.5, 7.5, 7.5, 7.5, 0, 0, 0, 0, 0, 0, 0, 0, 7.5, 0, 0, 0, 7.5, 0, 7.5, 0, 0, 0, 0, 0, 0, 0, 0, 0, 7.5, 0, 0, 0, 0, 0, 0, 0, 0, 0, 7.5, 7.5, 0, 0, 0, 0, 0, 7.5, 0, 0, 0, 7.5, 0, 0, 0, 0, 0, 7.5, 7.5, 0, 0, 0, 0, 0, 0, 7.5, 7.5, 0, 0, 7.5, 0, 0, 0, 0, 0, 0, 7.5, 0, 0, 0, 0, 0, 7.5, 0, 0, 0, 0, 7.5, 0, 0, 0, 0, 0, 0, 0, 0, 0, 0, 0, 0, 0, 0, 7.5, 7.5, 7.5, 7.5, 0, 0, 0, 0, 0, 0, 0, 0, 7.5, 0, 0, 0, 7.5, 0, 7.5, 0, 0, 0, 0, 0, 0, 0, 0, 0, 7.5, 0, 0, 0, 0, 0, 0, 0, 0, 0, 7.5, 7.5, 0, 0, 0, 0, 0, 7.5, 0, 0, 0, 7.5, 0, 0, 0, 0, 0, 7.5, 7.5, 0, 0, 0, 0, 0, 0, 7.5, 7.5, 0, 0, 7.5, 0, 0, 0, 0, 0, 0, 7.5, 0, 0, 0, 0, 0, 7.5, 0, 0, 0, 0, 7.5, 0, 0, 0, 0, 0, 0, 0, 0, 0, 0, 0, 0, 0, 0, 7.5, 7.5, 7.5, 7.5, 0, 0, 0, 0, 0, 0, 0, 0, 7.5, 0, 0, 0, 7.5, 0, 7.5, 0, 0, 0, 0, 0, 0, 0, 0, 0, 7.5, 0, 0, 0, 0, 0, 0, 0, 0, 0, 7.5, 7.5, 0, 0, 0, 0, 0, 7.5, 0, 0, 0, 7.5, 0, 0, 0, 0, 0, 7.5, 7.5, 0, 0, 0, 0, 0, 0, 7.5, 7.5, 0, 0, 7.5, 0, 0, 0, 0, 0, 0, 7.5, 0, 0, 0, 0, 0, 7.5, 0, 0, 0, 0, 7.5, 0, 0, 0, 0, 0, 0, 0, 0, 0, 0, 0, 0, 0, 0, 7.5, 7.5, 7.5, 7.5, 0, 0, 0, 0, 0, 0, 0, 0, 7.5, 0, 0, 0, 7.5, 0, 7.5, 0, 0, 0, 0, 0, 0, 0, 0, 0, 7.5, 0, 0, 0, 0, 0, 0, 0, 0, 0, 7.5, 7.5, 0, 0, 0, 0, 0, 7.5, 0, 0, 0, 7.5, 0, 0, 0, 0, 0, 7.5, 7.5, 0, 0, 0, 0, 0, 0, 7.5, 7.5, 0, 0, 7.5, 0, 0, 0, 0, 0, 0, 7.5, 0, 0, 0, 0, 0, 7.5, 0, 0, 0, 0, 7.5, 0, 0, 0, 0, 0, 0, 0, 0, 0, 0, 0, 0, 0, 0, 7.5, 7.5, 7.5, 7.5, 0, 0, 0, 0, 0, 0, 0, 0, 7.5, 0, 0, 0, 7.5, 0, 7.5, 0, 0, 0, 0, 0, 0, 0, 0, 0, 7.5, 0, 0, 0, 0, 0, 0, 0, 0, 0, 7.5, 7.5, 0, 0, 0, 0, 0, 7.5, 0, 0, 0, 7.5, 0, 0, 0, 0, 0, 7.5, 7.5, 0, 0, 0, 0, 0, 0, 7.5, 7.5, 0, 0, 7.5, 0, 0, 0, 0, 0, 0, 7.5, 0, 0, 0, 0, 0, 7.5, 0, 0, 0, 0, 7.5, 0, 0, 0, 0, 0, 0, 0, 0, 0, 0, 0, 0, 0, 0, 7.5, 7.5, 7.5, 7.5, 0, 0, 0, 0, 0, 0, 0, 0, 7.5, 0, 0, 0, 7.5, 0, 7.5, 0, 0, 0, 0, 0, 0, 0, 0, 0, 7.5, 0, 0, 0, 0, 0, 0, 0, 0, 0, 7.5, 7.5, 0, 0, 0, 0, 0, 7.5, 0, 0, 0, 7.5, 0, 0, 0, 0, 0, 7.5, 7.5, 0, 0, 0, 0, 0, 0, 7.5, 7.5, 0, 0, 7.5, 0, 0, 0, 0, 0, 0, 7.5, 0, 0, 0, 0, 0, 7.5, 0, 0, 0, 0, 7.5, 0, 0, 0, 0, 0, 0, 0, 0, 0, 0, 0, 0, 0, 0, 7.5, 7.5, 7.5, 7.5, 0, 0, 0, 0, 0, 0, 0, 0, 7.5, 0, 0, 0, 7.5, 0, 7.5, 0, 0, 0, 0, 0, 0, 0, 0, 0, 7.5, 0, 0, 0, 0, 0, 0, 0, 0, 0, 7.5, 7.5, 0, 0, 0, 0, 0, 7.5, 0, 0, 0, 7.5, 0, 0, 0, 0, 0, 7.5, 7.5, 0, 0, 0, 0, 0, 0, 7.5, 7.5, 0, 0, 7.5, 0, 0, 0, 0, 0, 0, 7.5, 0, 0, 0, 0, 0, 7.5, 0, 0, 0, 0, 7.5, 0, 0, 0, 0, 0, 0, 0, 0, 0, 0, 0, 0, 0, 0, 7.5, 7.5, 7.5, 7.5, 0, 0, 0, 0, 0, 0, 0, 0, 7.5, 0, 0, 0, 7.5, 0, 7.5, 0, 0, 0, 0, 0, 0, 0, 0, 0, 7.5, 0, 0, 0, 0, 0, 0, 0, 0, 0, 7.5, 7.5, 0, 0, 0, 0, 0, 7.5, 0, 0, 0, 7.5, 0, 0, 0, 0, 0, 7.5, 7.5, 0, 0, 0, 0, 0, 0, 7.5, 7.5, 0, 0, 7.5, 0, 0, 0, 0, 0, 0, 7.5, 0, 0, 0, 0, 0, 7.5, 0, 0, 0, 0, 7.5, 0, 0, 0, 0, 0, 0, 0, 0, 0, 0, 0, 0, 0, 0, 7.5, 7.5, 7.5, 7.5, 0, 0, 0, 0, 0, 0, 0, 0, 7.5, 0, 0, 0, 7.5, 0, 7.5, 0, 0, 0, 0, 0, 0, 0, 0, 0, 7.5, 0, 0, 0, 0, 0, 0, 0, 0, 0, 7.5, 7.5, 0, 0, 0, 0, 0, 7.5, 0, 0, 0, 7.5, 0, 0, 0, 0, 0, 7.5, 7.5, 0, 0, 0, 0, 0, 0, 7.5, 7.5, 0, 0, 7.5, 0, 0, 0, 0, 0, 0, 7.5, 0, 0, 0, 0, 0, 7.5, 0, 0, 0, 0, 7.5, 0, 0, 0, 0, 0, 0, 0, 0, 0, 0, 0, 0, 0, 0, 7.5, 7.5, 7.5, 7.5, 0, 0, 0, 0, 0, 0, 0, 0, 7.5, 0, 0, 0, 7.5, 0, 7.5, 0, 0, 0, 0, 0, 0, 0, 0, 0, 7.5, 0, 0, 0, 0, 0, 0, 0, 0, 0, 7.5, 7.5, 0, 0, 0, 0, 0, 7.5, 0, 0, 0, 7.5, 0, 0, 0, 0, 0, 7.5, 7.5, 0, 0, 0, 0, 0, 0, 7.5, 7.5, 0, 0, 7.5, 0, 0, 0, 0, 0, 0, 7.5, 0, 0, 0, 0, 0, 7.5, 0, 0, 0, 0, 7.5, 0, 0, 0, 0, 0, 0, 0, 0, 0, 0, 0, 0, 0, 0, 7.5, 7.5, 7.5, 7.5, 0, 0, 0, 0, 0, 0, 0, 0, 7.5, 0, 0, 0, 7.5, 0, 7.5, 0, 0, 0, 0, 0, 0, 0, 0, 0, 7.5, 0, 0, 0, 0, 0, 0, 0, 0, 0, 7.5, 7.5, 0, 0, 0, 7.5, 7.5, 0.0, 7.5, 7.5, 7.5, 0.0, 7.5, 7.5, 7.5, 7.5, 7.5, 0.0, 0.0, 7.5, 7.5, 7.5, 7.5, 7.5, 7.5, 0.0, 0.0, 7.5, 7.5, 0.0, 7.5, 7.5, 7.5, 7.5, 7.5, 7.5, 0.0, 7.5, 7.5, 7.5, 7.5, 7.5, 0.0, 7.5, 7.5, 7.5, 7.5, 0.0, 7.5, 7.5, 7.5, 7.5, 7.5, 7.5, 7.5, 7.5, 7.5, 7.5, 7.5, 7.5, 7.5, 7.5, 0.0, 0.0, 0.0, 0.0, 7.5, 7.5, 7.5, 7.5, 7.5, 7.5, 7.5, 7.5, 0.0, 7.5, 7.5, 7.5, 0.0, 7.5, 0.0, 7.5, 7.5, 7.5, 7.5, 7.5, 7.5, 7.5, 7.5, 7.5, 0.0, 7.5, 7.5, 7.5, 7.5, 7.5, 7.5, 7.5, 7.5, 7.5, 0.0, 0.0, 7.5, 7.5, 7.5, 7.5, 7.5, 0.0, 7.5, 7.5, 7.5, 0.0, 7.5, 7.5, 7.5, 7.5, 7.5, 0.0, 0.0, 7.5, 7.5, 7.5, 7.5, 7.5, 7.5, 0.0, 0.0, 7.5, 7.5, 0.0, 7.5, 7.5, 7.5, 7.5, 7.5, 7.5, 0.0, 7.5, 7.5, 7.5, 7.5, 7.5, 0.0, 7.5, 7.5, 7.5, 7.5, 0.0, 7.5, 7.5, 7.5, 7.5, 7.5, 7.5, 7.5, 7.5, 7.5, 7.5, 7.5, 7.5, 7.5, 7.5, 0.0, 0.0, 0.0, 0.0, 7.5, 7.5, 7.5, 7.5, 7.5, 7.5, 7.5, 7.5, 0.0, 7.5, 7.5, 7.5, 0.0, 7.5, 0.0, 7.5, 7.5, 7.5, 7.5, 7.5, 7.5, 7.5, 7.5, 7.5, 0.0, 7.5, 7.5, 7.5, 7.5, 7.5, 7.5, 7.5, 7.5, 7.5, 0.0, 0.0, 7.5, 7.5, 7.5, 7.5, 7.5, 0.0, 7.5, 7.5, 7.5, 0.0, 7.5, 7.5, 7.5, 7.5, 7.5, 0.0, 0.0, 7.5, 7.5, 7.5, 7.5, 7.5, 7.5, 0.0, 0.0, 7.5, 7.5, 0.0, 7.5, 7.5, 7.5, 7.5, 7.5, 7.5, 0.0, 7.5, 7.5, 7.5, 7.5, 7.5, 0.0, 7.5, 7.5, 7.5, 7.5, 0.0, 7.5, 7.5, 7.5, 7.5, 7.5, 7.5, 7.5, 7.5, 7.5, 7.5, 7.5, 7.5, 7.5, 7.5, 0.0, 0.0, 0.0, 0.0, 7.5, 7.5, 7.5, 7.5, 7.5, 7.5, 7.5, 7.5, 0.0, 7.5, 7.5, 7.5, 0.0, 7.5, 0.0, 7.5, 7.5, 7.5, 7.5, 7.5, 7.5, 7.5, 7.5, 7.5, 0.0, 7.5, 7.5, 7.5, 7.5, 7.5, 7.5, 7.5, 7.5, 7.5, 0.0, 0.0, 7.5, 7.5, 7.5, 7.5, 7.5, 0.0, 7.5, 7.5, 7.5, 0.0, 7.5, 7.5, 7.5, 7.5, 7.5, 0.0, 0.0, 7.5, 7.5, 7.5, 7.5, 7.5, 7.5, 0.0, 0.0, 7.5, 7.5, 0.0, 7.5, 7.5, 7.5, 7.5, 7.5, 7.5, 0.0, 7.5, 7.5, 7.5, 7.5, 7.5, 0.0, 7.5, 7.5, 7.5, 7.5, 0.0, 7.5, 7.5, 7.5, 7.5, 7.5, 7.5, 7.5, 7.5, 7.5, 7.5, 7.5, 7.5, 7.5, 7.5, 0.0, 0.0, 0.0, 0.0, 7.5, 7.5, 7.5, 7.5, 7.5, 7.5, 7.5, 7.5, 0.0, 7.5, 7.5, 7.5, 0.0, 7.5, 0.0, 7.5, 7.5, 7.5, 7.5, 7.5, 7.5, 7.5, 7.5, 7.5, 0.0, 7.5, 7.5, 7.5, 7.5, 7.5, 7.5, 7.5, 7.5, 7.5, 0.0, 0.0, 7.5, 7.5, 7.5, 0, 0, 7.5, 0, 0, 0, 7.5, 0, 0, 0, 0, 0, 7.5, 7.5, 0, 0, 0, 0, 0, 0, 7.5, 7.5, 0, 0, 7.5, 0, 0, 0, 0, 0, 0, 7.5, 0, 0, 0, 0, 0, 7.5, 0, 0, 0, 0, 7.5, 0, 0, 0, 0, 0, 0, 0, 0, 0, 0, 0, 0, 0, 0, 7.5, 7.5, 7.5, 7.5, 0, 0, 0, 0, 0, 0, 0, 0, 7.5, 0, 0, 0, 7.5, 0, 7.5, 0, 0, 0, 0, 0, 0, 0, 0, 0, 7.5, 0, 0, 0, 0, 0, 0, 0, 0, 0, 7.5, 7.5, 0, 0, 0, 0, 0, 7.5, 0, 0, 0, 7.5, 0, 0, 0, 0, 0, 7.5, 7.5, 0, 0, 0, 0, 0, 0, 7.5, 7.5, 0, 0, 7.5, 0, 0, 0, 0, 0, 0, 7.5, 0, 0, 0, 0, 0, 7.5, 0, 0, 0, 0, 7.5, 0, 0, 0, 0, 0, 0, 0, 0, 0, 0, 0, 0, 0, 0, 7.5, 7.5, 7.5, 7.5, 0, 0, 0, 0, 0, 0, 0, 0, 7.5, 0, 0, 0, 7.5, 0, 7.5, 0, 0, 0, 0, 0, 0, 0, 0, 0, 7.5, 0, 0, 0, 0, 0, 0, 0, 0, 0, 7.5, 7.5, 0, 0, 0, 0, 0, 7.5, 0, 0, 0, 7.5, 0, 0, 0, 0, 0, 7.5, 7.5, 0, 0, 0, 0, 0, 0, 7.5, 7.5, 0, 0, 7.5, 0, 0, 0, 0, 0, 0, 7.5, 0, 0, 0, 0, 0, 7.5, 0, 0, 0, 0, 7.5, 0, 0, 0, 0, 0, 0, 0, 0, 0, 0, 0, 0, 0, 0, 7.5, 7.5, 7.5, 7.5, 0, 0, 0, 0, 0, 0, 0, 0, 7.5, 0, 0, 0, 7.5, 0, 7.5, 0, 0, 0, 0, 0, 0, 0, 0, 0, 7.5, 0, 0, 0, 0, 0, 0, 0, 0, 0, 7.5, 7.5, 0, 0, 0, 0, 0, 7.5, 0, 0, 0, 7.5, 0, 0, 0, 0, 0, 7.5, 7.5, 0, 0, 0, 0, 0, 0, 7.5, 7.5, 0, 0, 7.5, 0, 0, 0, 0, 0, 0, 7.5, 0, 0, 0, 0, 0, 7.5, 0, 0, 0, 0, 7.5, 0, 0, 0, 0, 0, 0, 0, 0, 0, 0, 0, 0, 0, 0, 7.5, 7.5, 7.5, 7.5, 0, 0, 0, 0, 0, 0, 0, 0, 7.5, 0, 0, 0, 7.5, 0, 7.5, 0, 0, 0, 0, 0, 0, 0, 0, 0, 7.5, 0, 0, 0, 0, 0, 0, 0, 0, 0, 7.5, 7.5, 0, 0, 0, 0, 0, 7.5, 0, 0, 0, 7.5, 0, 0, 0, 0, 0, 7.5, 7.5, 0, 0, 0, 0, 0, 0, 7.5, 7.5, 0, 0, 7.5, 0, 0, 0, 0, 0, 0, 7.5, 0, 0, 0, 0, 0, 7.5, 0, 0, 0, 0, 7.5, 0, 0, 0, 0, 0, 0, 0, 0, 0, 0, 0, 0, 0, 0, 7.5, 7.5, 7.5, 7.5, 0, 0, 0, 0, 0, 0, 0, 0, 7.5, 0, 0, 0, 7.5, 0, 7.5, 0, 0, 0, 0, 0, 0, 0, 0, 0, 7.5, 0, 0, 0, 0, 0, 0, 0, 0, 0, 7.5, 7.5, 0, 0, 0, 0, 0, 7.5, 0, 0, 0, 7.5, 0, 0, 0, 0, 0, 7.5, 7.5, 0, 0, 0, 0, 0, 0, 7.5, 7.5, 0, 0, 7.5, 0, 0, 0, 0, 0, 0, 7.5, 0, 0, 0, 0, 0, 7.5, 0, 0, 0, 0, 7.5, 0, 0, 0, 0, 0, 0, 0, 0, 0, 0, 0, 0, 0, 0, 7.5, 7.5, 7.5, 7.5, 0, 0, 0, 0, 0, 0, 0, 0, 7.5, 0, 0, 0, 7.5, 0, 7.5, 0, 0, 0, 0, 0, 0, 0, 0, 0, 7.5, 0, 0, 0, 0, 0, 0, 0, 0, 0, 7.5, 7.5, 0, 0, 0, 0, 0, 7.5, 0, 0, 0, 7.5, 0, 0, 0, 0, 0, 7.5, 7.5, 0, 0, 0, 0, 0, 0, 7.5, 7.5, 0, 0, 7.5, 0, 0, 0, 0, 0, 0, 7.5, 0, 0, 0, 0, 0, 7.5, 0, 0, 0, 0, 7.5, 0, 0, 0, 0, 0, 0, 0, 0, 0, 0, 0, 0, 0, 0, 7.5, 7.5, 7.5, 7.5, 0, 0, 0, 0, 0, 0, 0, 0, 7.5, 0, 0, 0, 7.5, 0, 7.5, 0, 0, 0, 0, 0, 0, 0, 0, 0, 7.5, 0, 0, 0, 0, 0, 0, 0, 0, 0, 7.5, 7.5, 0, 0, 0, 0, 0, 7.5, 0, 0, 0, 7.5, 0, 0, 0, 0, 0, 7.5, 7.5, 0, 0, 0, 0, 0, 0, 7.5, 7.5, 0, 0, 7.5, 0, 0, 0, 0, 0, 0, 7.5, 0, 0, 0, 0, 0, 7.5, 0, 0, 0, 0, 7.5, 0, 0, 0, 0, 0, 0, 0, 0, 0, 0, 0, 0, 0, 0, 7.5, 7.5, 7.5, 7.5, 0, 0, 0, 0, 0, 0, 0, 0, 7.5, 0, 0, 0, 7.5, 0, 7.5, 0, 0, 0, 0, 0, 0, 0, 0, 0, 7.5, 0, 0, 0, 0, 0, 0, 0, 0, 0, 7.5, 7.5, 0, 0, 0, 7.5, 7.5, 0.0, 7.5, 7.5, 7.5, 0.0, 7.5, 7.5, 7.5, 7.5, 7.5, 0.0, 0.0, 7.5, 7.5, 7.5, 7.5, 7.5, 7.5, 0.0, 0.0, 7.5, 7.5, 0.0, 7.5, 7.5, 7.5, 7.5, 7.5, 7.5, 0.0, 7.5, 7.5, 7.5, 7.5, 7.5, 0.0, 7.5, 7.5, 7.5, 7.5, 0.0, 7.5, 7.5, 7.5, 7.5, 7.5, 7.5, 7.5, 7.5, 7.5, 7.5, 7.5, 7.5, 7.5, 7.5, 0.0, 0.0, 0.0, 0.0, 7.5, 7.5, 7.5, 7.5, 7.5, 7.5, 7.5, 7.5, 0.0, 7.5, 7.5, 7.5, 0.0, 7.5, 0.0, 7.5, 7.5, 7.5, 7.5, 7.5, 7.5, 7.5, 7.5, 7.5, 0.0, 7.5, 7.5, 7.5, 7.5, 7.5, 7.5, 7.5, 7.5, 7.5, 0.0, 0.0, 7.5, 7.5, 7.5, 0, 0, 7.5, 0, 0, 0, 7.5, 0, 0, 0, 0, 0, 7.5, 7.5, 0, 0, 0, 0, 0, 0, 7.5, 7.5, 0, 0, 7.5, 0, 0, 0, 0, 0, 0, 7.5, 0, 0, 0, 0, 0, 7.5, 0, 0, 0, 0, 7.5, 0, 0, 0, 0, 0, 0, 0, 0, 0, 0, 0, 0, 0, 0, 7.5, 7.5, 7.5, 7.5, 0, 0, 0, 0, 0, 0, 0, 0, 7.5, 0, 0, 0, 7.5, 0, 7.5, 0, 0, 0, 0, 0, 0, 0, 0, 0, 7.5, 0, 0, 0, 0, 0, 0, 0, 0, 0, 7.5, 7.5, 0, 0, 0, 0, 0, 7.5, 0, 0, 0, 7.5, 0, 0, 0, 0, 0, 7.5, 7.5, 0, 0, 0, 0, 0, 0, 7.5, 7.5, 0, 0, 7.5, 0, 0, 0, 0, 0, 0, 7.5, 0, 0, 0, 0, 0, 7.5, 0, 0, 0, 0, 7.5, 0, 0, 0, 0, 0, 0, 0, 0, 0, 0, 0, 0, 0, 0, 7.5, 7.5, 7.5, 7.5, 0, 0, 0, 0, 0, 0, 0, 0, 7.5, 0, 0, 0, 7.5, 0, 7.5, 0, 0, 0, 0, 0, 0, 0, 0, 0, 7.5, 0, 0, 0, 0, 0, 0, 0, 0, 0, 7.5, 7.5, 0, 0, 0, 0, 0, 7.5, 0, 0, 0, 7.5, 0, 0, 0, 0, 0, 7.5, 7.5, 0, 0, 0, 0, 0, 0, 7.5, 7.5, 0, 0, 7.5, 0, 0, 0, 0, 0, 0, 7.5, 0, 0, 0, 0, 0, 7.5, 0, 0, 0, 0, 7.5, 0, 0, 0, 0, 0, 0, 0, 0, 0, 0, 0, 0, 0, 0, 7.5, 7.5, 7.5, 7.5, 0, 0, 0, 0, 0, 0, 0, 0, 7.5, 0, 0, 0, 7.5, 0, 7.5, 0, 0, 0, 0, 0, 0, 0, 0, 0, 7.5, 0, 0, 0, 0, 0, 0, 0, 0, 0, 7.5, 7.5, 0, 0, 0, 7.5, 7.5, 0.0, 7.5, 7.5, 7.5, 0.0, 7.5, 7.5, 7.5, 7.5, 7.5, 0.0, 0.0, 7.5, 7.5, 7.5, 7.5, 7.5, 7.5, 0.0, 0.0, 7.5, 7.5, 0.0, 7.5, 7.5, 7.5, 7.5, 7.5, 7.5, 0.0, 7.5, 7.5, 7.5, 7.5, 7.5, 0.0, 7.5, 7.5, 7.5, 7.5, 0.0, 7.5, 7.5, 7.5, 7.5, 7.5, 7.5, 7.5, 7.5, 7.5, 7.5, 7.5, 7.5, 7.5, 7.5, 0.0, 0.0, 0.0, 0.0, 7.5, 7.5, 7.5, 7.5, 7.5, 7.5, 7.5, 7.5, 0.0, 7.5, 7.5, 7.5, 0.0, 7.5, 0.0, 7.5, 7.5, 7.5, 7.5, 7.5, 7.5, 7.5, 7.5, 7.5, 0.0, 7.5, 7.5, 7.5, 7.5, 7.5, 7.5, 7.5, 7.5, 7.5, 0.0, 0.0, 7.5, 7.5, 7.5, 0, 0, 7.5, 0, 0, 0, 7.5, 0, 0, 0, 0, 0, 7.5, 7.5, 0, 0, 0, 0, 0, 0, 7.5, 7.5, 0, 0, 7.5, 0, 0, 0, 0, 0, 0, 7.5, 0, 0, 0, 0, 0, 7.5, 0, 0, 0, 0, 7.5, 0, 0, 0, 0, 0, 0, 0, 0, 0, 0, 0, 0, 0, 0, 7.5, 7.5, 7.5, 7.5, 0, 0, 0, 0, 0, 0, 0, 0, 7.5, 0, 0, 0, 7.5, 0, 7.5, 0, 0, 0, 0, 0, 0, 0, 0, 0, 7.5, 0, 0, 0, 0, 0, 0, 0, 0, 0, 7.5, 7.5, 0, 0, 0, 7.5, 7.5, 0.0, 7.5, 7.5, 7.5, 0.0, 7.5, 7.5, 7.5, 7.5, 7.5, 0.0, 0.0, 7.5, 7.5, 7.5, 7.5, 7.5, 7.5, 0.0, 0.0, 7.5, 7.5, 0.0, 7.5, 7.5, 7.5, 7.5, 7.5, 7.5, 0.0, 7.5, 7.5, 7.5, 7.5, 7.5, 0.0, 7.5, 7.5, 7.5, 7.5, 0.0, 7.5, 7.5, 7.5, 7.5, 7.5, 7.5, 7.5, 7.5, 7.5, 7.5, 7.5, 7.5, 7.5, 7.5, 0.0, 0.0, 0.0, 0.0, 7.5, 7.5, 7.5, 7.5, 7.5, 7.5, 7.5, 7.5, 0.0, 7.5, 7.5, 7.5, 0.0, 7.5, 0.0, 7.5, 7.5, 7.5, 7.5, 7.5, 7.5, 7.5, 7.5, 7.5, 0.0, 7.5, 7.5, 7.5, 7.5, 7.5, 7.5, 7.5, 7.5, 7.5, 0.0, 0.0, 7.5, 7.5, 7.5, 0, 0, 7.5, 0, 0, 0, 7.5, 0, 0, 0, 0, 0, 7.5, 7.5, 0, 0, 0, 0, 0, 0, 7.5, 7.5, 0, 0, 7.5, 0, 0, 0, 0, 0, 0, 7.5, 0, 0, 0, 0, 0, 7.5, 0, 0, 0, 0, 7.5, 0, 0, 0, 0, 0, 0, 0, 0, 0, 0, 0, 0, 0, 0, 7.5, 7.5, 7.5, 7.5, 0, 0, 0, 0, 0, 0, 0, 0, 7.5, 0, 0, 0, 7.5, 0, 7.5, 0, 0, 0, 0, 0, 0, 0, 0, 0, 7.5, 0, 0, 0, 0, 0, 0, 0, 0, 0, 7.5, 7.5, 0, 0, 0, 0, 0, 7.5, 0, 0, 0, 7.5, 0, 0, 0, 0, 0, 7.5, 7.5, 0, 0, 0, 0, 0, 0, 7.5, 7.5, 0, 0, 7.5, 0, 0, 0, 0, 0, 0, 7.5, 0, 0, 0, 0, 0, 7.5, 0, 0, 0, 0, 7.5, 0, 0, 0, 0, 0, 0, 0, 0, 0, 0, 0, 0, 0, 0, 7.5, 7.5, 7.5, 7.5, 0, 0, 0, 0, 0, 0, 0, 0, 7.5, 0, 0, 0, 7.5, 0, 7.5, 0, 0, 0, 0, 0, 0, 0, 0, 0, 7.5, 0, 0, 0, 0, 0, 0, 0, 0, 0, 7.5, 7.5, 0, 0, 0, 0, 0, 7.5, 0, 0, 0, 7.5, 0, 0, 0, 0, 0, 7.5, 7.5, 0, 0, 0, 0, 0, 0, 7.5, 7.5, 0, 0, 7.5, 0, 0, 0, 0, 0, 0, 7.5, 0, 0, 0, 0, 0, 7.5, 0, 0, 0, 0, 7.5, 0, 0, 0, 0, 0, 0, 0, 0, 0, 0, 0, 0, 0, 0, 7.5, 7.5, 7.5, 7.5, 0, 0, 0, 0, 0, 0, 0, 0, 7.5, 0, 0, 0, 7.5, 0, 7.5, 0, 0, 0, 0, 0, 0, 0, 0, 0, 7.5, 0, 0, 0, 0, 0, 0, 0, 0, 0, 7.5, 7.5, 0, 0, 0, 0, 0, 7.5, 0, 0, 0, 7.5, 0, 0, 0, 0, 0, 7.5, 7.5, 0, 0, 0, 0, 0, 0, 7.5, 7.5, 0, 0, 7.5, 0, 0, 0, 0, 0, 0, 7.5, 0, 0, 0, 0, 0, 7.5, 0, 0, 0, 0, 7.5, 0, 0, 0, 0, 0, 0, 0, 0, 0, 0, 0, 0, 0, 0, 7.5, 7.5, 7.5, 7.5, 0, 0, 0, 0, 0, 0, 0, 0, 7.5, 0, 0, 0, 7.5, 0, 7.5, 0, 0, 0, 0, 0, 0, 0, 0, 0, 7.5, 0, 0, 0, 0, 0, 0, 0, 0, 0, 7.5, 7.5, 0, 0, 0, 0, 0, 7.5, 0, 0, 0, 7.5, 0, 0, 0, 0, 0, 7.5, 7.5, 0, 0, 0, 0, 0, 0, 7.5, 7.5, 0, 0, 7.5, 0, 0, 0, 0, 0, 0, 7.5, 0, 0, 0, 0, 0, 7.5, 0, 0, 0, 0, 7.5, 0, 0, 0, 0, 0, 0, 0, 0, 0, 0, 0, 0, 0, 0, 7.5, 7.5, 7.5, 7.5, 0, 0, 0, 0, 0, 0, 0, 0, 7.5, 0, 0, 0, 7.5, 0, 7.5, 0, 0, 0, 0, 0, 0, 0, 0, 0, 7.5, 0, 0, 0, 0, 0, 0, 0, 0, 0, 7.5, 7.5, 0, 0, 0, 0, 0, 7.5, 0, 0, 0, 7.5, 0, 0, 0, 0, 0, 7.5, 7.5, 0, 0, 0, 0, 0, 0, 7.5, 7.5, 0, 0, 7.5, 0, 0, 0, 0, 0, 0, 7.5, 0, 0, 0, 0, 0, 7.5, 0, 0, 0, 0, 7.5, 0, 0, 0, 0, 0, 0, 0, 0, 0, 0, 0, 0, 0, 0, 7.5, 7.5, 7.5, 7.5, 0, 0, 0, 0, 0, 0, 0, 0, 7.5, 0, 0, 0, 7.5, 0, 7.5, 0, 0, 0, 0, 0, 0, 0, 0, 0, 7.5, 0, 0, 0, 0, 0, 0, 0, 0, 0, 7.5, 7.5, 0, 0, 0, 0, 0, 7.5, 0, 0, 0, 7.5, 0, 0, 0, 0, 0, 7.5, 7.5, 0, 0, 0, 0, 0, 0, 7.5, 7.5, 0, 0, 7.5, 0, 0, 0, 0, 0, 0, 7.5, 0, 0, 0, 0, 0, 7.5, 0, 0, 0, 0, 7.5, 0, 0, 0, 0, 0, 0, 0, 0, 0, 0, 0, 0, 0, 0, 7.5, 7.5, 7.5, 7.5, 0, 0, 0, 0, 0, 0, 0, 0, 7.5, 0, 0, 0, 7.5, 0, 7.5, 0, 0, 0, 0, 0, 0, 0, 0, 0, 7.5, 0, 0, 0, 0, 0, 0, 0, 0, 0, 7.5, 7.5, 0, 0, 0, 0, 0, 7.5, 0, 0, 0, 7.5, 0, 0, 0, 0, 0, 7.5, 7.5, 0, 0, 0, 0, 0, 0, 7.5, 7.5, 0, 0, 7.5, 0, 0, 0, 0, 0, 0, 7.5, 0, 0, 0, 0, 0, 7.5, 0, 0, 0, 0, 7.5, 0, 0, 0, 0, 0, 0, 0, 0, 0, 0, 0, 0, 0, 0, 7.5, 7.5, 7.5, 7.5, 0, 0, 0, 0, 0, 0, 0, 0, 7.5, 0, 0, 0, 7.5, 0, 7.5, 0, 0, 0, 0, 0, 0, 0, 0, 0, 7.5, 0, 0, 0, 0, 0, 0, 0, 0, 0, 7.5, 7.5, 0, 0, 0, 0, 0, 7.5, 0, 0, 0, 7.5, 0, 0, 0, 0, 0, 7.5, 7.5, 0, 0, 0, 0, 0, 0, 7.5, 7.5, 0, 0, 7.5, 0, 0, 0, 0, 0, 0, 7.5, 0, 0, 0, 0, 0, 7.5, 0, 0, 0, 0, 7.5, 0, 0, 0, 0, 0, 0, 0, 0, 0, 0, 0, 0, 0, 0, 7.5, 7.5, 7.5, 7.5, 0, 0, 0, 0, 0, 0, 0, 0, 7.5, 0, 0, 0, 7.5, 0, 7.5, 0, 0, 0, 0, 0, 0, 0, 0, 0, 7.5, 0, 0, 0, 0, 0, 0, 0, 0, 0, 7.5, 7.5, 0, 0, 0, 7.5, 7.5, 0.0, 7.5, 7.5, 7.5, 0.0, 7.5, 7.5, 7.5, 7.5, 7.5, 0.0, 0.0, 7.5, 7.5, 7.5, 7.5, 7.5, 7.5, 0.0, 0.0, 7.5, 7.5, 0.0, 7.5, 7.5, 7.5, 7.5, 7.5, 7.5, 0.0, 7.5, 7.5, 7.5, 7.5, 7.5, 0.0, 7.5, 7.5, 7.5, 7.5, 0.0, 7.5, 7.5, 7.5, 7.5, 7.5, 7.5, 7.5, 7.5, 7.5, 7.5, 7.5, 7.5, 7.5, 7.5, 0.0, 0.0, 0.0, 0.0, 7.5, 7.5, 7.5, 7.5, 7.5, 7.5, 7.5, 7.5, 0.0, 7.5, 7.5, 7.5, 0.0, 7.5, 0.0, 7.5, 7.5, 7.5, 7.5, 7.5, 7.5, 7.5, 7.5, 7.5, 0.0, 7.5, 7.5, 7.5, 7.5, 7.5, 7.5, 7.5, 7.5, 7.5, 0.0, 0.0, 7.5, 7.5, 7.5, 0, 0, 7.5, 0, 0, 0, 7.5, 0, 0, 0, 0, 0, 7.5, 7.5, 0, 0, 0, 0, 0, 0, 7.5, 7.5, 0, 0, 7.5, 0, 0, 0, 0, 0, 0, 7.5, 0, 0, 0, 0, 0, 7.5, 0, 0, 0, 0, 7.5, 0, 0, 0, 0, 0, 0, 0, 0, 0, 0, 0, 0, 0, 0, 7.5, 7.5, 7.5, 7.5, 0, 0, 0, 0, 0, 0, 0, 0, 7.5, 0, 0, 0, 7.5, 0, 7.5, 0, 0, 0, 0, 0, 0, 0, 0, 0, 7.5, 0, 0, 0, 0, 0, 0, 0, 0, 0, 7.5, 7.5, 0, 0, 0, 0, 0, 7.5, 0, 0, 0, 7.5, 0, 0, 0, 0, 0, 7.5, 7.5, 0, 0, 0, 0, 0, 0, 7.5, 7.5, 0, 0, 7.5, 0, 0, 0, 0, 0, 0, 7.5, 0, 0, 0, 0, 0, 7.5, 0, 0, 0, 0, 7.5, 0, 0, 0, 0, 0, 0, 0, 0, 0, 0, 0, 0, 0, 0, 7.5, 7.5, 7.5, 7.5, 0, 0, 0, 0, 0, 0, 0, 0, 7.5, 0, 0, 0, 7.5, 0, 7.5, 0, 0, 0, 0, 0, 0, 0, 0, 0, 7.5, 0, 0, 0, 0, 0, 0, 0, 0, 0, 7.5, 7.5, 0, 0, 0, 0, 0, 7.5, 0, 0, 0, 7.5, 0, 0, 0, 0, 0, 7.5, 7.5, 0, 0, 0, 0, 0, 0, 7.5, 7.5, 0, 0, 7.5, 0, 0, 0, 0, 0, 0, 7.5, 0, 0, 0, 0, 0, 7.5, 0, 0, 0, 0, 7.5, 0, 0, 0, 0, 0, 0, 0, 0, 0, 0, 0, 0, 0, 0, 7.5, 7.5, 7.5, 7.5, 0, 0, 0, 0, 0, 0, 0, 0, 7.5, 0, 0, 0, 7.5, 0, 7.5, 0, 0, 0, 0, 0, 0, 0, 0, 0, 7.5, 0, 0, 0, 0, 0, 0, 0, 0, 0, 7.5, 7.5, 0, 0, 0, 0, 0, 7.5, 0, 0, 0, 7.5, 0, 0, 0, 0, 0, 7.5, 7.5, 0, 0, 0, 0, 0, 0, 7.5, 7.5, 0, 0, 7.5, 0, 0, 0, 0, 0, 0, 7.5, 0, 0, 0, 0, 0, 7.5, 0, 0, 0, 0, 7.5, 0, 0, 0, 0, 0, 0, 0, 0, 0, 0, 0, 0, 0, 0, 7.5, 7.5, 7.5, 7.5, 0, 0, 0, 0, 0, 0, 0, 0, 7.5, 0, 0, 0, 7.5, 0, 7.5, 0, 0, 0, 0, 0, 0, 0, 0, 0, 7.5, 0, 0, 0, 0, 0, 0, 0, 0, 0, 7.5, 7.5, 0, 0, 0, 0, 0, 7.5, 0, 0, 0, 7.5, 0, 0, 0, 0, 0, 7.5, 7.5, 0, 0, 0, 0, 0, 0, 7.5, 7.5, 0, 0, 7.5, 0, 0, 0, 0, 0, 0, 7.5, 0, 0, 0, 0, 0, 7.5, 0, 0, 0, 0, 7.5, 0, 0, 0, 0, 0, 0, 0, 0, 0, 0, 0, 0, 0, 0, 7.5, 7.5, 7.5, 7.5, 0, 0, 0, 0, 0, 0, 0, 0, 7.5, 0, 0, 0, 7.5, 0, 7.5, 0, 0, 0, 0, 0, 0, 0, 0, 0, 7.5, 0, 0, 0, 0, 0, 0, 0, 0, 0, 7.5, 7.5, 0, 0, 0, 0, 0, 7.5, 0, 0, 0, 7.5, 0, 0, 0, 0, 0, 7.5, 7.5, 0, 0, 0, 0, 0, 0, 7.5, 7.5, 0, 0, 7.5, 0, 0, 0, 0, 0, 0, 7.5, 0, 0, 0, 0, 0, 7.5, 0, 0, 0, 0, 7.5, 0, 0, 0, 0, 0, 0, 0, 0, 0, 0, 0, 0, 0, 0, 7.5, 7.5, 7.5, 7.5, 0, 0, 0, 0, 0, 0, 0, 0, 7.5, 0, 0, 0, 7.5, 0, 7.5, 0, 0, 0, 0, 0, 0, 0, 0, 0, 7.5, 0, 0, 0, 0, 0, 0, 0, 0, 0, 7.5, 7.5, 0, 0, 0, 0, 0, 7.5, 0, 0, 0, 7.5, 0, 0, 0, 0, 0, 7.5, 7.5, 0, 0, 0, 0, 0, 0, 7.5, 7.5, 0, 0, 7.5, 0, 0, 0, 0, 0, 0, 7.5, 0, 0, 0, 0, 0, 7.5, 0, 0, 0, 0, 7.5, 0, 0, 0, 0, 0, 0, 0, 0, 0, 0, 0, 0, 0, 0, 7.5, 7.5, 7.5, 7.5, 0, 0, 0, 0, 0, 0, 0, 0, 7.5, 0, 0, 0, 7.5, 0, 7.5, 0, 0, 0, 0, 0, 0, 0, 0, 0, 7.5, 0, 0, 0, 0, 0, 0, 0, 0, 0, 7.5, 7.5, 0, 0, 0, 0, 0, 7.5, 0, 0, 0, 7.5, 0, 0, 0, 0, 0, 7.5, 7.5, 0, 0, 0, 0, 0, 0, 7.5, 7.5, 0, 0, 7.5, 0, 0, 0, 0, 0, 0, 7.5, 0, 0, 0, 0, 0, 7.5, 0, 0, 0, 0, 7.5, 0, 0, 0, 0, 0, 0, 0, 0, 0, 0, 0, 0, 0, 0, 7.5, 7.5, 7.5, 7.5, 0, 0, 0, 0, 0, 0, 0, 0, 7.5, 0, 0, 0, 7.5, 0, 7.5, 0, 0, 0, 0, 0, 0, 0, 0, 0, 7.5, 0, 0, 0, 0, 0, 0, 0, 0, 0, 7.5, 7.5, 0, 0, 0, 0, 0, 7.5, 0, 0, 0, 7.5, 0, 0, 0, 0, 0, 7.5, 7.5, 0, 0, 0, 0, 0, 0, 7.5, 7.5, 0, 0, 7.5, 0, 0, 0, 0, 0, 0, 7.5, 0, 0, 0, 0, 0, 7.5, 0, 0, 0, 0, 7.5, 0, 0, 0, 0, 0, 0, 0, 0, 0, 0, 0, 0, 0, 0, 7.5, 7.5, 7.5, 7.5, 0, 0, 0, 0, 0, 0, 0, 0, 7.5, 0, 0, 0, 7.5, 0, 7.5, 0, 0, 0, 0, 0, 0, 0, 0, 0, 7.5, 0, 0, 0, 0, 0, 0, 0, 0, 0, 7.5, 7.5, 0, 0, 0, 7.5, 7.5, 0.0, 7.5, 7.5, 7.5, 0.0, 7.5, 7.5, 7.5, 7.5, 7.5, 0.0, 0.0, 7.5, 7.5, 7.5, 7.5, 7.5, 7.5, 0.0, 0.0, 7.5, 7.5, 0.0, 7.5, 7.5, 7.5, 7.5, 7.5, 7.5, 0.0, 7.5, 7.5, 7.5, 7.5, 7.5, 0.0, 7.5, 7.5, 7.5, 7.5, 0.0, 7.5, 7.5, 7.5, 7.5, 7.5, 7.5, 7.5, 7.5, 7.5, 7.5, 7.5, 7.5, 7.5, 7.5, 0.0, 0.0, 0.0, 0.0, 7.5, 7.5, 7.5, 7.5, 7.5, 7.5, 7.5, 7.5, 0.0, 7.5, 7.5, 7.5, 0.0, 7.5, 0.0, 7.5, 7.5, 7.5, 7.5, 7.5, 7.5, 7.5, 7.5, 7.5, 0.0, 7.5, 7.5, 7.5, 7.5, 7.5, 7.5, 7.5, 7.5, 7.5, 0.0, 0.0, 7.5, 7.5, 7.5, 7.5, 7.5, 0.0, 7.5, 7.5, 7.5, 0.0, 7.5, 7.5, 7.5, 7.5, 7.5, 0.0, 0.0, 7.5, 7.5, 7.5, 7.5, 7.5, 7.5, 0.0, 0.0, 7.5, 7.5, 0.0, 7.5, 7.5, 7.5, 7.5, 7.5, 7.5, 0.0, 7.5, 7.5, 7.5, 7.5, 7.5, 0.0, 7.5, 7.5, 7.5, 7.5, 0.0, 7.5, 7.5, 7.5, 7.5, 7.5, 7.5, 7.5, 7.5, 7.5, 7.5, 7.5, 7.5, 7.5, 7.5, 0.0, 0.0, 0.0, 0.0, 7.5, 7.5, 7.5, 7.5, 7.5, 7.5, 7.5, 7.5, 0.0, 7.5, 7.5, 7.5, 0.0, 7.5, 0.0, 7.5, 7.5, 7.5, 7.5, 7.5, 7.5, 7.5, 7.5, 7.5, 0.0, 7.5, 7.5, 7.5, 7.5, 7.5, 7.5, 7.5, 7.5, 7.5, 0.0, 0.0, 7.5, 7.5, 7.5, 0, 0, 7.5, 0, 0, 0, 7.5, 0, 0, 0, 0, 0, 7.5, 7.5, 0, 0, 0, 0, 0, 0, 7.5, 7.5, 0, 0, 7.5, 0, 0, 0, 0, 0, 0, 7.5, 0, 0, 0, 0, 0, 7.5, 0, 0, 0, 0, 7.5, 0, 0, 0, 0, 0, 0, 0, 0, 0, 0, 0, 0, 0, 0, 7.5, 7.5, 7.5, 7.5, 0, 0, 0, 0, 0, 0, 0, 0, 7.5, 0, 0, 0, 7.5, 0, 7.5, 0, 0, 0, 0, 0, 0, 0, 0, 0, 7.5, 0, 0, 0, 0, 0, 0, 0, 0, 0, 7.5, 7.5, 0, 0, 0, 0, 0, 7.5, 0, 0, 0, 7.5, 0, 0, 0, 0, 0, 7.5, 7.5, 0, 0, 0, 0, 0, 0, 7.5, 7.5, 0, 0, 7.5, 0, 0, 0, 0, 0, 0, 7.5, 0, 0, 0, 0, 0, 7.5, 0, 0, 0, 0, 7.5, 0, 0, 0, 0, 0, 0, 0, 0, 0, 0, 0, 0, 0, 0, 7.5, 7.5, 7.5, 7.5, 0, 0, 0, 0, 0, 0, 0, 0, 7.5, 0, 0, 0, 7.5, 0, 7.5, 0, 0, 0, 0, 0, 0, 0, 0, 0, 7.5, 0, 0, 0, 0, 0, 0, 0, 0, 0, 7.5, 7.5, 0, 0, 0, 0, 0, 7.5, 0, 0, 0, 7.5, 0, 0, 0, 0, 0, 7.5, 7.5, 0, 0, 0, 0, 0, 0, 7.5, 7.5, 0, 0, 7.5, 0, 0, 0, 0, 0, 0, 7.5, 0, 0, 0, 0, 0, 7.5, 0, 0, 0, 0, 7.5, 0, 0, 0, 0, 0, 0, 0, 0, 0, 0, 0, 0, 0, 0, 7.5, 7.5, 7.5, 7.5, 0, 0, 0, 0, 0, 0, 0, 0, 7.5, 0, 0, 0, 7.5, 0, 7.5, 0, 0, 0, 0, 0, 0, 0, 0, 0, 7.5, 0, 0, 0, 0, 0, 0, 0, 0, 0, 7.5, 7.5, 0, 0, 0]);
